p cnf 40 40
-27 -34 -2 0
39 16 24 0
-18 32 -26 0
-19 37 22 0
-7 -39 29 0
14 -36 26 0
26 14 7 0
-8 -35 36 0
32 1 7 0
-27 -30 37 0
-25 6 -1 0
-8 3 -36 0
23 30 -37 0
16 -3 -5 0
-12 -10 24 0
29 -9 26 0
12 3 -30 0
26 32 -28 0
26 -12 13 0
-8 13 -6 0
-19 7 -12 0
40 7 12 0
29 8 -7 0
-37 38 -26 0
-18 5 -40 0
31 -27 23 0
-13 27 -34 0
27 -26 -25 0
2 -7 -3 0
-11 12 -19 0
9 -31 -3 0
26 -8 6 0
16 32 3 0
-24 35 -36 0
17 1 -14 0
19 4 -35 0
-32 -35 -7 0
8 -16 9 0
-2 -26 -40 0
10 31 -22 0
